
        $ From http://www.csplib.org/Problems/prob009/data/helmut.pdf
        $ Problem number 79
        $ Sequence length : 25
        language ESSENCE' 1.0
        letting sizemaster be 311
        letting sizes be sequence(2,7,8,9,10,15,16,17,18,23,25,26,28,36,38,43,53,60,61,68,83,91,99,151,160)
        